c n orig vars 50
p cnf 143 386
51 -1 0
51 -2 0
-51 1 2 0
52 -3 0
52 -4 0
-52 3 4 0
53 -5 0
53 -6 0
-53 5 6 0
54 -7 0
54 -8 0
-54 7 8 0
55 -9 0
55 -10 0
-55 9 10 0
56 -11 0
56 -12 0
-56 11 12 0
57 -13 0
57 -14 0
-57 13 14 0
58 -15 0
58 -16 0
-58 15 16 0
59 -17 0
59 -18 0
-59 17 18 0
60 -19 0
60 -20 0
-60 19 20 0
-61 51 0
-61 52 0
-61 53 0
-61 54 0
-61 55 0
-61 56 0
-61 57 0
-61 58 0
-61 59 0
-61 60 0
61 -51 -52 -53 -54 -55 -56 -57 -58 -59 -60 0
-61 0
62 -21 0
62 -27 0
62 -33 0
62 -39 0
62 -45 0
-62 21 27 33 39 45 0
63 -22 0
63 -28 0
63 -34 0
63 -40 0
63 -46 0
-63 22 28 34 40 46 0
64 -23 0
64 -29 0
64 -35 0
64 -41 0
64 -47 0
-64 23 29 35 41 47 0
65 -24 0
65 -30 0
65 -36 0
65 -42 0
65 -48 0
-65 24 30 36 42 48 0
66 -25 0
66 -31 0
66 -37 0
66 -43 0
66 -49 0
-66 25 31 37 43 49 0
67 -26 0
67 -32 0
67 -38 0
67 -44 0
67 -50 0
-67 26 32 38 44 50 0
68 21 0
68 22 0
-68 -21 -22 0
69 21 0
69 23 0
-69 -21 -23 0
70 21 0
70 24 0
-70 -21 -24 0
71 21 0
71 25 0
-71 -21 -25 0
72 21 0
72 26 0
-72 -21 -26 0
73 22 0
73 23 0
-73 -22 -23 0
74 22 0
74 24 0
-74 -22 -24 0
75 22 0
75 25 0
-75 -22 -25 0
76 22 0
76 26 0
-76 -22 -26 0
77 23 0
77 24 0
-77 -23 -24 0
78 23 0
78 25 0
-78 -23 -25 0
79 23 0
79 26 0
-79 -23 -26 0
80 24 0
80 25 0
-80 -24 -25 0
81 24 0
81 26 0
-81 -24 -26 0
82 25 0
82 26 0
-82 -25 -26 0
83 27 0
83 28 0
-83 -27 -28 0
84 27 0
84 29 0
-84 -27 -29 0
85 27 0
85 30 0
-85 -27 -30 0
86 27 0
86 31 0
-86 -27 -31 0
87 27 0
87 32 0
-87 -27 -32 0
88 28 0
88 29 0
-88 -28 -29 0
89 28 0
89 30 0
-89 -28 -30 0
90 28 0
90 31 0
-90 -28 -31 0
91 28 0
91 32 0
-91 -28 -32 0
92 29 0
92 30 0
-92 -29 -30 0
93 29 0
93 31 0
-93 -29 -31 0
94 29 0
94 32 0
-94 -29 -32 0
95 30 0
95 31 0
-95 -30 -31 0
96 30 0
96 32 0
-96 -30 -32 0
97 31 0
97 32 0
-97 -31 -32 0
98 33 0
98 34 0
-98 -33 -34 0
99 33 0
99 35 0
-99 -33 -35 0
100 33 0
100 36 0
-100 -33 -36 0
101 33 0
101 37 0
-101 -33 -37 0
102 33 0
102 38 0
-102 -33 -38 0
103 34 0
103 35 0
-103 -34 -35 0
104 34 0
104 36 0
-104 -34 -36 0
105 34 0
105 37 0
-105 -34 -37 0
106 34 0
106 38 0
-106 -34 -38 0
107 35 0
107 36 0
-107 -35 -36 0
108 35 0
108 37 0
-108 -35 -37 0
109 35 0
109 38 0
-109 -35 -38 0
110 36 0
110 37 0
-110 -36 -37 0
111 36 0
111 38 0
-111 -36 -38 0
112 37 0
112 38 0
-112 -37 -38 0
113 39 0
113 40 0
-113 -39 -40 0
114 39 0
114 41 0
-114 -39 -41 0
115 39 0
115 42 0
-115 -39 -42 0
116 39 0
116 43 0
-116 -39 -43 0
117 39 0
117 44 0
-117 -39 -44 0
118 40 0
118 41 0
-118 -40 -41 0
119 40 0
119 42 0
-119 -40 -42 0
120 40 0
120 43 0
-120 -40 -43 0
121 40 0
121 44 0
-121 -40 -44 0
122 41 0
122 42 0
-122 -41 -42 0
123 41 0
123 43 0
-123 -41 -43 0
124 41 0
124 44 0
-124 -41 -44 0
125 42 0
125 43 0
-125 -42 -43 0
126 42 0
126 44 0
-126 -42 -44 0
127 43 0
127 44 0
-127 -43 -44 0
128 45 0
128 46 0
-128 -45 -46 0
129 45 0
129 47 0
-129 -45 -47 0
130 45 0
130 48 0
-130 -45 -48 0
131 45 0
131 49 0
-131 -45 -49 0
132 45 0
132 50 0
-132 -45 -50 0
133 46 0
133 47 0
-133 -46 -47 0
134 46 0
134 48 0
-134 -46 -48 0
135 46 0
135 49 0
-135 -46 -49 0
136 46 0
136 50 0
-136 -46 -50 0
137 47 0
137 48 0
-137 -47 -48 0
138 47 0
138 49 0
-138 -47 -49 0
139 47 0
139 50 0
-139 -47 -50 0
140 48 0
140 49 0
-140 -48 -49 0
141 48 0
141 50 0
-141 -48 -50 0
142 49 0
142 50 0
-142 -49 -50 0
-143 62 0
-143 63 0
-143 64 0
-143 65 0
-143 66 0
-143 67 0
-143 68 0
-143 69 0
-143 70 0
-143 71 0
-143 72 0
-143 73 0
-143 74 0
-143 75 0
-143 76 0
-143 77 0
-143 78 0
-143 79 0
-143 80 0
-143 81 0
-143 82 0
-143 83 0
-143 84 0
-143 85 0
-143 86 0
-143 87 0
-143 88 0
-143 89 0
-143 90 0
-143 91 0
-143 92 0
-143 93 0
-143 94 0
-143 95 0
-143 96 0
-143 97 0
-143 98 0
-143 99 0
-143 100 0
-143 101 0
-143 102 0
-143 103 0
-143 104 0
-143 105 0
-143 106 0
-143 107 0
-143 108 0
-143 109 0
-143 110 0
-143 111 0
-143 112 0
-143 113 0
-143 114 0
-143 115 0
-143 116 0
-143 117 0
-143 118 0
-143 119 0
-143 120 0
-143 121 0
-143 122 0
-143 123 0
-143 124 0
-143 125 0
-143 126 0
-143 127 0
-143 128 0
-143 129 0
-143 130 0
-143 131 0
-143 132 0
-143 133 0
-143 134 0
-143 135 0
-143 136 0
-143 137 0
-143 138 0
-143 139 0
-143 140 0
-143 141 0
-143 142 0
143 -62 -63 -64 -65 -66 -67 -68 -69 -70 -71 -72 -73 -74 -75 -76 -77 -78 -79 -80 -81 -82 -83 -84 -85 -86 -87 -88 -89 -90 -91 -92 -93 -94 -95 -96 -97 -98 -99 -100 -101 -102 -103 -104 -105 -106 -107 -108 -109 -110 -111 -112 -113 -114 -115 -116 -117 -118 -119 -120 -121 -122 -123 -124 -125 -126 -127 -128 -129 -130 -131 -132 -133 -134 -135 -136 -137 -138 -139 -140 -141 -142 0
-143 0
